decision_x1=[0,2];
decision_x2=[0,2];
decision_x3=[0,2];
decision_x4=[0,2];
decision_x5=[0,2];
decision_x6=[0,2];
random_y1=[0,2];
random_y2=[0,2];
constraint_x2_x1=[
0,0,1.4|
0,1,3.6|
0,2,5.9|
1,0,5.4|
1,1,8.8|
1,2,8.5|
2,0,8.2|
2,1,1.8|
2,2,7.1|
];
constraint_x3_x1=[
0,0,4.4|
0,1,9.2|
0,2,4.2|
1,0,3.9|
1,1,8|
1,2,5.5|
2,0,8.3|
2,1,9.2|
2,2,6.4|
];
constraint_x3_x2=[
0,0,4.8|
0,1,5.1|
0,2,1.3|
1,0,9.4|
1,1,8|
1,2,5.7|
2,0,1.6|
2,1,4.4|
2,2,8.6|
];
constraint_x4_x1=[
0,0,6.5|
0,1,2.1|
0,2,7.4|
1,0,0.89|
1,1,7.8|
1,2,3.6|
2,0,4.7|
2,1,3.8|
2,2,8.5|
];
constraint_x4_x2=[
0,0,3.1|
0,1,7.5|
0,2,0.19|
1,0,5.8|
1,1,4.2|
1,2,2.1|
2,0,0.11|
2,1,0.62|
2,2,5.7|
];
constraint_x5_x1=[
0,0,9.4|
0,1,7|
0,2,8.2|
1,0,7.5|
1,1,9|
1,2,9.3|
2,0,6.7|
2,1,2.6|
2,2,2|
];
constraint_x5_x2=[
0,0,7|
0,1,9.8|
0,2,9.9|
1,0,4.3|
1,1,8.7|
1,2,6.1|
2,0,8.1|
2,1,3.3|
2,2,3.4|
];
constraint_x6_x4=[
0,0,3|
0,1,3.4|
0,2,8.8|
1,0,6.6|
1,1,2.7|
1,2,3.2|
2,0,4.1|
2,1,0.065|
2,2,6.9|
];
constraint_x1_y1=[
0,0,8.3|
0,1,1.9|
0,2,0.38|
1,0,7.8|
1,1,6.7|
1,2,0.54|
2,0,5.7|
2,1,6.8|
2,2,7.6|
];
constraint_x2_y2=[
0,0,3.9|
0,1,6.6|
0,2,0.67|
1,0,9.9|
1,1,1.8|
1,2,1.3|
2,0,9.2|
2,1,0.26|
2,2,4.2|
];
initial_distribution_y1=[0.15,0.6,0.26];
initial_distribution_y2=[0.4,0.16,0.44];
transition_y1=[
0.1,0.61,0.28|
0.54,0.33,0.14|
0.11,0.077,0.82|
];
transition_y2=[
0.32,0.56,0.13|
0.19,0.64,0.16|
0.52,0.29,0.18|
];
